! ================================================================
! This file was generated by Gabedit
! ================================================================
 $SYSTEM MWORDS=20 $END
 $CONTRL RUNTYP=Energy $END
 $CONTRL SCFTYP=RHF $END
 $CONTRL ICHARG=0  MULT=1 $END
 $scf  NPUNCH=0 $end 
 $contrl nprint=8 $end
 $BASIS GBASIS=N31 NGAUSS=6 $END
 $BASIS NDFUNC=1 $END
 $BASIS DIFFSP=.TRUE. $END
 $DATA
Molecule specification
C1
N  7.000000 2.161418 1.505696 0.163284
H  1.000000 1.573615 2.309867 0.360016
C  6.000000 1.511497 0.200031 0.166451
H  1.000000 1.846868 -0.355977 -0.709049
C  6.000000 -0.019459 0.317153 0.084023
O  8.000000 -0.596969 1.321195 0.506852
C  6.000000 1.952316 -0.557194 1.422114
H  1.000000 3.042602 -0.584814 1.464376
H  1.000000 1.574097 -0.046165 2.309905
S  16.000000 1.303730 -2.250946 1.355180
H  1.000000 1.673259 -2.945992 2.438213
H  1.000000 -0.604199 -0.524149 -0.287859
H  1.000000 3.001614 1.616341 -0.386108
H  1.000000 1.766354 -2.871328 0.266188
H  1.000000 -0.030616 -2.223250 1.295165
 $END
